c
c This is glucose 4.1 --  based on MiniSAT (Many thanks to MiniSAT team)
c
c ========================================[ Problem Statistics ]===========================================
c |                                                                                                       |
c |  Number of variables:          2380                                                                   |
c |  Number of clauses:            4260                                                                   |
c |  Parse time:                   0.00 s                                                                 |
c |                                                                                                       |
c | Preprocesing is fully done
c |  Eliminated clauses:           0.02 Mb                                                                |
c |  Simplification time:          0.00 s                                                                 |
c |                                                                                                       |
c ========================================[ MAGIC CONSTANTS ]==============================================
c | Constants are supposed to work well together :-)                                                      |
c | however, if you find better choices, please let us known...                                           |
c |-------------------------------------------------------------------------------------------------------|
c | Adapt dynamically the solver after 100000 conflicts (restarts, reduction strategies...)               |
c |-------------------------------------------------------------------------------------------------------|
c |                                |                                |                                     |
c | - Restarts:                    | - Reduce Clause DB:            | - Minimize Asserting:               |
c |   * LBD Queue    :     50      |   * First     :   2000         |    * size <  30                     |
c |   * Trail  Queue :   5000      |   * Inc       :    300         |    * lbd  <   6                     |
c |   * K            :   0.80      |   * Special   :   1000         |                                     |
c |   * R            :   1.40      |   * Protected :  (lbd)< 30     |                                     |
c |                                |                                |                                     |
c ==================================[ Search Statistics (every  10000 conflicts) ]=========================
c |                                                                                                       |
c |          RESTARTS           |          ORIGINAL         |              LEARNT              | Progress |
c |       NB   Blocked  Avg Cfc |    Vars  Clauses Literals |   Red   Learnts    LBD2  Removed |          |
c =========================================================================================================
c |        3         0     3333 |     244     1057     3205 |     2     6202       34     3797 |  0.000 % |
c |        3       150     6666 |     244     1057     3205 |     3    11206       55     8793 |  0.000 % |
c |        3       301    10000 |     244     1057     3205 |     4    13806       76    16193 |  0.000 % |
c |        3       444    13333 |     244     1057     3205 |     5    13902       96    26097 |  0.000 % |
c |       14       585     3571 |     244     1057     3205 |     5    23902      106    26097 |  0.000 % |
c |       18       728     3333 |     244     1057     3205 |     6    21453      117    38546 |  0.000 % |
c |       18       878     3888 |     244     1057     3205 |     7    16431      132    53568 |  0.000 % |
c |       19      1028     4210 |     244     1057     3205 |     7    26431      151    53568 |  0.000 % |
c |       20      1177     4500 |     243     1047     3175 |     8    13078      175    65442 |  0.042 % |
c |       20      1325     5000 |     242     1037     3145 |     8    17126      202    65442 |  0.084 % |
c
c Try to adapt solver strategies
c 
c Adjusting for low decision levels.
c
c Activating Chanseok Strategy: moved 9965 clauses to the permanent set.
c Removing of non permanent clauses.
c |       28      1325     3928 |     241     1025     6743 |    12     3101      236    69200 |  0.126 % |
c =========================================================================================================
c restarts              : 29 (3926 conflicts in avg)
c blocked restarts      : 1375 (multiple: 17) 
c last block at restart : 29
c nb ReduceDB           : 14
c nb removed Clauses    : 71698
c nb learnts DL2        : 283
c nb learnts size 2     : 70
c nb learnts size 1     : 10
c nb permanent learnts  : 2574
c conflicts             : 113861         (21402 /sec)
c decisions             : 131332         (0.00 % random) (24686 /sec)
c propagations          : 4593454        (863431 /sec)
c nb reduced Clauses    : 71
c CPU time              : 5.32 s

s UNSATISFIABLE
